certificates/rado_a14_c52_N44.cnf
c Rad2 upper bound instance: x1 + 14*x2 - x3 = 52, interval [1,44]
p cnf 44 276
1 4 5 0
-1 -4 -5 0
1 5 19 0
-1 -5 -19 0
1 6 33 0
-1 -6 -33 0
2 4 6 0
-2 -4 -6 0
2 5 20 0
-2 -5 -20 0
2 6 34 0
-2 -6 -34 0
3 4 7 0
-3 -4 -7 0
3 5 21 0
-3 -5 -21 0
3 6 35 0
-3 -6 -35 0
4 8 0
-4 -8 0
4 5 22 0
-4 -5 -22 0
4 6 36 0
-4 -6 -36 0
4 5 9 0
-4 -5 -9 0
5 23 0
-5 -23 0
5 6 37 0
-5 -6 -37 0
4 6 10 0
-4 -6 -10 0
5 6 24 0
-5 -6 -24 0
6 38 0
-6 -38 0
4 7 11 0
-4 -7 -11 0
5 7 25 0
-5 -7 -25 0
6 7 39 0
-6 -7 -39 0
4 8 12 0
-4 -8 -12 0
5 8 26 0
-5 -8 -26 0
6 8 40 0
-6 -8 -40 0
4 9 13 0
-4 -9 -13 0
5 9 27 0
-5 -9 -27 0
6 9 41 0
-6 -9 -41 0
4 10 14 0
-4 -10 -14 0
5 10 28 0
-5 -10 -28 0
6 10 42 0
-6 -10 -42 0
1 3 11 0
-1 -3 -11 0
4 11 15 0
-4 -11 -15 0
5 11 29 0
-5 -11 -29 0
6 11 43 0
-6 -11 -43 0
2 3 12 0
-2 -3 -12 0
4 12 16 0
-4 -12 -16 0
5 12 30 0
-5 -12 -30 0
6 12 44 0
-6 -12 -44 0
3 13 0
-3 -13 0
4 13 17 0
-4 -13 -17 0
5 13 31 0
-5 -13 -31 0
3 4 14 0
-3 -4 -14 0
4 14 18 0
-4 -14 -18 0
5 14 32 0
-5 -14 -32 0
3 5 15 0
-3 -5 -15 0
4 15 19 0
-4 -15 -19 0
5 15 33 0
-5 -15 -33 0
3 6 16 0
-3 -6 -16 0
4 16 20 0
-4 -16 -20 0
5 16 34 0
-5 -16 -34 0
3 7 17 0
-3 -7 -17 0
4 17 21 0
-4 -17 -21 0
5 17 35 0
-5 -17 -35 0
3 8 18 0
-3 -8 -18 0
4 18 22 0
-4 -18 -22 0
5 18 36 0
-5 -18 -36 0
3 9 19 0
-3 -9 -19 0
4 19 23 0
-4 -19 -23 0
5 19 37 0
-5 -19 -37 0
3 10 20 0
-3 -10 -20 0
4 20 24 0
-4 -20 -24 0
5 20 38 0
-5 -20 -38 0
3 11 21 0
-3 -11 -21 0
4 21 25 0
-4 -21 -25 0
5 21 39 0
-5 -21 -39 0
3 12 22 0
-3 -12 -22 0
4 22 26 0
-4 -22 -26 0
5 22 40 0
-5 -22 -40 0
3 13 23 0
-3 -13 -23 0
4 23 27 0
-4 -23 -27 0
5 23 41 0
-5 -23 -41 0
3 14 24 0
-3 -14 -24 0
4 24 28 0
-4 -24 -28 0
5 24 42 0
-5 -24 -42 0
1 2 25 0
-1 -2 -25 0
3 15 25 0
-3 -15 -25 0
4 25 29 0
-4 -25 -29 0
5 25 43 0
-5 -25 -43 0
2 26 0
-2 -26 0
3 16 26 0
-3 -16 -26 0
4 26 30 0
-4 -26 -30 0
5 26 44 0
-5 -26 -44 0
2 3 27 0
-2 -3 -27 0
3 17 27 0
-3 -17 -27 0
4 27 31 0
-4 -27 -31 0
2 4 28 0
-2 -4 -28 0
3 18 28 0
-3 -18 -28 0
4 28 32 0
-4 -28 -32 0
2 5 29 0
-2 -5 -29 0
3 19 29 0
-3 -19 -29 0
4 29 33 0
-4 -29 -33 0
2 6 30 0
-2 -6 -30 0
3 20 30 0
-3 -20 -30 0
4 30 34 0
-4 -30 -34 0
2 7 31 0
-2 -7 -31 0
3 21 31 0
-3 -21 -31 0
4 31 35 0
-4 -31 -35 0
2 8 32 0
-2 -8 -32 0
3 22 32 0
-3 -22 -32 0
4 32 36 0
-4 -32 -36 0
2 9 33 0
-2 -9 -33 0
3 23 33 0
-3 -23 -33 0
4 33 37 0
-4 -33 -37 0
2 10 34 0
-2 -10 -34 0
3 24 34 0
-3 -24 -34 0
4 34 38 0
-4 -34 -38 0
2 11 35 0
-2 -11 -35 0
3 25 35 0
-3 -25 -35 0
4 35 39 0
-4 -35 -39 0
2 12 36 0
-2 -12 -36 0
3 26 36 0
-3 -26 -36 0
4 36 40 0
-4 -36 -40 0
2 13 37 0
-2 -13 -37 0
3 27 37 0
-3 -27 -37 0
4 37 41 0
-4 -37 -41 0
2 14 38 0
-2 -14 -38 0
3 28 38 0
-3 -28 -38 0
4 38 42 0
-4 -38 -42 0
1 39 0
-1 -39 0
2 15 39 0
-2 -15 -39 0
3 29 39 0
-3 -29 -39 0
4 39 43 0
-4 -39 -43 0
1 2 40 0
-1 -2 -40 0
2 16 40 0
-2 -16 -40 0
3 30 40 0
-3 -30 -40 0
4 40 44 0
-4 -40 -44 0
1 3 41 0
-1 -3 -41 0
2 17 41 0
-2 -17 -41 0
3 31 41 0
-3 -31 -41 0
1 4 42 0
-1 -4 -42 0
2 18 42 0
-2 -18 -42 0
3 32 42 0
-3 -32 -42 0
1 5 43 0
-1 -5 -43 0
2 19 43 0
-2 -19 -43 0
3 33 43 0
-3 -33 -43 0
1 6 44 0
-1 -6 -44 0
2 20 44 0
-2 -20 -44 0
3 34 44 0
-3 -34 -44 0
