certificates/rado_a14_c52_N44.drat
-40 -44 0
d -4 -40 -44 0
16 -41 -43 -44 0
-4 -36 40 0
6 4 -42 0
-6 -16 -43 -44 0
6 -42 0
d 6 4 -42 0
-6 -43 -44 0
d -6 -16 -43 -44 0
-43 -44 0
d -6 -43 -44 0
d 16 -41 -43 -44 0
4 -44 0
-44 0
-6 -4 0
-4 0
8 0
40 0
-6 0
38 0
12 0
1 0
-42 0
10 0
2 0
36 0
0
